200 200
18 90
15 63
23 89
108 19
17 45
19 106
12 30
22 14
74 26
5 16
17 41
9 16
82 12
3 4
79 17
12 13
17 25
33 5
4 17
20 5
48 13
10 20
10 32
9 12
3 20
8 36
14 9
26 7
8 7
9 2
17 11
18 11
23 9
30 10
28 40
13 13
16 16
5 26
8 3
24 23
25 22
8 12
12 10
5 10
4 8
7 2
7 27
8 32
9 6
14 73
49 14
87 30
22 6
23 9
67 16
32 24
6 11
16 3
39 8
8 20
4 26
55 8
49 15
35 11
3 13
31 11
4 2
7 9
47 16
2 7
40 9
25 5
35 11
7 29
21 48
11 44
3 18
10 38
1 4
10 12
22 8
63 18
18 5
20 4
4 1
6 13
10 12
1 1
9 11
7 19
1 6
5 13
22 22
7 10
35 20
28 9
66 11
